(set-info :source |printed by MathSAT|)
(declare-fun ldv_module_refcounter () (_ BitVec 32))

*:
(assert (let ((.def_23681 (= ldv_module_refcounter (_ bv1 32)))).def_23681))
(assert (let ((.def_23686 (bvslt (_ bv1 32) ldv_module_refcounter))).def_23686))

